c boolean__Z16CHECK_parity_1_4j
p cnf 161 260
2 1 0
2 1 -33 0
3 35 0
3 35 -36 0
4 38 0
4 38 -39 0
5 41 0
5 41 -42 0
6 44 0
6 44 -45 0
7 47 0
7 47 -48 0
8 50 0
8 50 -51 0
9 53 0
9 53 -54 0
10 56 0
10 56 -57 0
11 59 0
11 59 -60 0
12 62 0
12 62 -63 0
13 65 0
13 65 -66 0
14 68 0
14 68 -69 0
15 71 0
15 71 -72 0
16 74 0
16 74 -75 0
17 77 0
17 77 -78 0
18 80 0
18 80 -81 0
19 83 0
19 83 -84 0
20 86 0
20 86 -87 0
21 89 0
21 89 -90 0
22 92 0
22 92 -93 0
23 95 0
23 95 -96 0
24 98 0
24 98 -99 0
25 101 0
25 101 -102 0
26 104 0
26 104 -105 0
27 107 0
27 107 -108 0
28 110 0
28 110 -111 0
29 113 0
29 113 -114 0
30 116 0
30 116 -117 0
31 119 0
31 119 -120 0
32 122 0
32 122 -123 0
17 1 0
17 1 -126 0
18 2 0
18 2 -129 0
19 3 0
19 3 -132 0
20 4 0
20 4 -135 0
21 5 0
21 5 -138 0
22 6 0
22 6 -141 0
23 7 0
23 7 -144 0
24 8 0
24 8 -147 0
25 9 0
25 9 -150 0
26 10 0
26 10 -153 0
27 11 0
27 11 -156 0
28 12 0
28 12 -159 0
29 13 0
29 13 -162 0
30 14 0
30 14 -165 0
31 15 0
31 15 -168 0
32 16 0
32 16 -171 0
152 128 0
152 128 -174 0
155 131 0
155 131 -177 0
158 134 0
158 134 -180 0
161 137 0
161 137 -183 0
164 140 0
164 140 -186 0
167 143 0
167 143 -189 0
170 146 0
170 146 -192 0
173 149 0
173 149 -195 0
188 176 0
188 176 -198 0
191 179 0
191 179 -201 0
194 182 0
194 182 -204 0
197 185 0
197 185 -207 0
-200 -203 0
210 -206 0
200 -203 0
212 -206 0
213 -209 0
-200 203 0
215 -206 0
216 -209 0
-217 214 0
200 203 0
220 -206 0
221 -209 0
-222 217 218 0
210 206 0
224 -209 0
-225 223 0
212 206 0
228 -209 0
-229 225 226 0
215 206 0
231 -209 0
-232 230 0
220 206 0
234 -209 0
-235 233 0
211 209 0
-238 235 236 0
213 209 0
-241 238 239 0
216 209 0
-243 242 0
221 209 0
-245 244 0
224 209 0
-248 245 246 0
228 209 0
-250 249 0
231 209 0
-253 250 251 0
234 209 0
-256 253 254 0
125 257 0
125 257 -258 0
